[[25, 55, 18, 50, 32, 44, 3, 24, 49, 16, 63, 23, 56, 43, 41, 42, 64, 22, 61, 28, 62, 73, 33, 51, 6, 68, 2, 30, 74, 48, 21, 47, 69, 36, 71, 60], [70, 20, 37, 5, 15, 57, 13, 54, 29, 45, 27, 52, 34, 4, 75, 76, 17, 26, 67, 46, 7, 8, 35, 19, 53, 14, 59, 11, 66, 65, 38, 10, 31, 58, 72, 12, 40, 39, 9]]